NAME: random-53-30505
TYPE: TSP
COMMENT: size=53 seed=30505
DIMENSION: 108
EDGE_WEIGHT_TYPE: EUC_2D
NODE_COORD_SECTION
+0 535 981
-0 535 981
+1 606 47
-1 275 314
+2 628 781
-2 594 257
+3 304 272
-3 825 789
+4 104 747
-4 888 827
+5 470 695
-5 43 131
+6 436 934
-6 160 681
+7 650 492
-7 442 380
+8 678 626
-8 312 901
+9 589 367
-9 938 437
+10 190 476
-10 997 973
+11 447 826
-11 744 366
+12 577 421
-12 998 534
+13 849 978
-13 867 337
+14 493 179
-14 105 6
+15 998 0
-15 642 516
+16 746 769
-16 39 791
+17 723 62
-17 212 859
+18 231 793
-18 952 21
+19 327 711
-19 462 580
+20 31 342
-20 497 358
+21 290 487
-21 699 204
+22 19 555
-22 829 547
+23 596 331
-23 703 348
+24 790 695
-24 85 583
+25 675 354
-25 488 107
+26 402 404
-26 766 309
+27 429 238
-27 24 233
+28 926 738
-28 208 648
+29 879 112
-29 946 294
+30 875 13
-30 93 254
+31 582 349
-31 395 904
+32 884 968
-32 831 848
+33 915 12
-33 792 536
+34 107 60
-34 791 287
+35 303 487
-35 335 992
+36 315 507
-36 278 791
+37 98 436
-37 575 744
+38 907 924
-38 784 450
+39 290 498
-39 611 71
+40 795 679
-40 793 450
+41 535 735
-41 630 416
+42 589 818
-42 483 618
+43 598 981
-43 171 782
+44 557 8
-44 785 52
+45 111 926
-45 988 455
+46 669 223
-46 170 203
+47 5 880
-47 95 42
+48 370 542
-48 746 970
+49 623 808
-49 448 181
+50 221 235
-50 626 222
+51 811 800
-51 537 941
+52 560 522
-52 241 102
+53 944 830
-53 458 545
PRECEDENCE_SECTION
+0 -0
+1 -1
+2 -2
+3 -3
+4 -4
+5 -5
+6 -6
+7 -7
+8 -8
+9 -9
+10 -10
+11 -11
+12 -12
+13 -13
+14 -14
+15 -15
+16 -16
+17 -17
+18 -18
+19 -19
+20 -20
+21 -21
+22 -22
+23 -23
+24 -24
+25 -25
+26 -26
+27 -27
+28 -28
+29 -29
+30 -30
+31 -31
+32 -32
+33 -33
+34 -34
+35 -35
+36 -36
+37 -37
+38 -38
+39 -39
+40 -40
+41 -41
+42 -42
+43 -43
+44 -44
+45 -45
+46 -46
+47 -47
+48 -48
+49 -49
+50 -50
+51 -51
+52 -52
+53 -53
EOF
